NAME 
ROWS
 N  OBJ
 E  c0      
 G  c1      
 G  c2      
 E  c3      
 E  c4      
 E  c5      
 E  c6      
 G  c7      
 G  c8      
 E  c9      
 G  c10     
 G  c11     
 G  c12     
 G  c13     
 E  c14     
 E  c15     
 E  c16     
 E  c17     
 E  c18     
 E  c19     
 E  c20     
 E  c21     
 G  c22     
 G  c23     
 E  c24     
 E  c25     
 E  c26     
 E  c27     
 G  c28     
 G  c29     
 E  c30     
 G  c31     
 G  c32     
 G  c33     
 G  c34     
 E  c35     
 E  c36     
 E  c37     
 E  c38     
 E  c39     
 E  c40     
 E  c41     
 E  c42     
 G  c43     
 G  c44     
 E  c45     
 E  c46     
 E  c47     
 E  c48     
 G  c49     
 G  c50     
 E  c51     
 G  c52     
 G  c53     
 G  c54     
 G  c55     
 E  c56     
 E  c57     
 E  c58     
 E  c59     
 E  c60     
 E  c61     
 E  c62     
 E  c63     
 G  c64     
 G  c65     
 E  c66     
 E  c67     
 E  c68     
 E  c69     
 G  c70     
 G  c71     
 E  c72     
 G  c73     
 G  c74     
 G  c75     
 G  c76     
 E  c77     
 E  c78     
 E  c79     
 E  c80     
 E  c81     
 E  c82     
 E  c83     
 E  c84     
 E  c85     
 E  c86     
 E  c87     
 G  c88     
 G  c89     
 E  c90     
 E  c91     
 E  c92     
 E  c93     
 G  c94     
 G  c95     
 E  c96     
 G  c97     
 G  c98     
 G  c99     
 G  c100    
 E  c101    
 E  c102    
 E  c103    
 E  c104    
 E  c105    
 E  c106    
 E  c107    
 E  c108    
 G  c109    
 G  c110    
 E  c111    
 E  c112    
 E  c113    
 E  c114    
 G  c115    
 G  c116    
 E  c117    
 G  c118    
 G  c119    
 G  c120    
 G  c121    
 E  c122    
 E  c123    
 E  c124    
 E  c125    
 E  c126    
 E  c127    
 E  c128    
 E  c129    
 G  c130    
 G  c131    
 E  c132    
 E  c133    
 E  c134    
 E  c135    
 G  c136    
 G  c137    
 E  c138    
 G  c139    
 G  c140    
 G  c141    
 G  c142    
 E  c143    
 E  c144    
 E  c145    
 E  c146    
 E  c147    
 E  c148    
 E  c149    
 E  c150    
 G  c151    
 G  c152    
 E  c153    
 E  c154    
 E  c155    
 E  c156    
 G  c157    
 G  c158    
 E  c159    
 G  c160    
 G  c161    
 G  c162    
 G  c163    
 E  c164    
 E  c165    
 E  c166    
 E  c167    
 E  c168    
 E  c169    
 E  c170    
 E  c171    
 E  c172    
 E  c173    
COLUMNS
    X[1,1,1]  c0        -0.1
    X[1,1,1]  c1        -0.1
    X[1,1,1]  c2        0.9
    X[1,1,1]  c22       -0.1
    X[1,1,1]  c23       0.9
    X[1,1,1]  c43       -0.1
    X[1,1,1]  c44       0.9
    X[1,1,1]  c64       -0.1
    X[1,1,1]  c65       0.9
    X[1,1,1]  c87       -0.1
    X[1,1,1]  c88       -0.1
    X[1,1,1]  c89       0.9
    X[1,1,1]  c109      -0.1
    X[1,1,1]  c110      0.9
    X[1,1,1]  c130      -0.1
    X[1,1,1]  c131      0.9
    X[1,1,1]  c151      -0.1
    X[1,1,1]  c152      0.9
    X[1,1,2]  OBJ       -1.9284830559257147e+00
    X[1,1,2]  c3        -0.1679706
    X[1,1,2]  c24       -0.2857758
    X[1,1,2]  c45       -3.6674819999999997e-01
    X[1,1,2]  c66       -0.4147962
    X[1,1,2]  c90       -0.1679706
    X[1,1,2]  c111      -0.2857758
    X[1,1,2]  c132      -3.6674819999999997e-01
    X[1,1,2]  c153      -0.4147962
    X[1,1,3]  c4        -1
    X[1,1,3]  c25       -1
    X[1,1,3]  c46       -1
    X[1,1,3]  c67       -1
    X[1,1,3]  c91       -1
    X[1,1,3]  c112      -1
    X[1,1,3]  c133      -1
    X[1,1,3]  c154      -1
    X[2,1,1]  c87       -0.1
    X[2,1,1]  c88       -0.1
    X[2,1,1]  c89       0.9
    X[2,1,1]  c109      -0.1
    X[2,1,1]  c110      0.9
    X[2,1,1]  c130      -0.1
    X[2,1,1]  c131      0.9
    X[2,1,1]  c151      -0.1
    X[2,1,1]  c152      0.9
    X[2,1,2]  OBJ       -1.9284830559257147e+00
    X[2,1,2]  c90       -0.1679706
    X[2,1,2]  c111      -0.2857758
    X[2,1,2]  c132      -3.6674819999999997e-01
    X[2,1,2]  c153      -0.4147962
    X[2,1,3]  c91       -1
    X[2,1,3]  c112      -1
    X[2,1,3]  c133      -1
    X[2,1,3]  c154      -1
    U_E[1,1,1]  c10       10000
    U_E[1,1,1]  c11       -10000
    U_E[1,2,1]  c31       10000
    U_E[1,2,1]  c32       -10000
    U_E[1,3,1]  c52       10000
    U_E[1,3,1]  c53       -10000
    U_E[1,4,1]  c73       10000
    U_E[1,4,1]  c74       -10000
    U_E[2,1,1]  c97       10050.1
    U_E[2,1,1]  c98       -10050.1
    U_E[2,2,1]  c118      10050.1
    U_E[2,2,1]  c119      -10050.1
    U_E[2,3,1]  c139      10050.1
    U_E[2,3,1]  c140      -10050.1
    U_E[2,4,1]  c160      10050.1
    U_E[2,4,1]  c161      -10050.1
    U_G[1,1,1]  c12       1000000
    U_G[1,1,1]  c13       -1000000
    U_G[1,2,1]  c33       1000000
    U_G[1,2,1]  c34       -1000000
    U_G[1,3,1]  c54       1000000
    U_G[1,3,1]  c55       -1000000
    U_G[1,4,1]  c75       1000000
    U_G[1,4,1]  c76       -1000000
    U_G[2,1,1]  c99       1000000
    U_G[2,1,1]  c100      -1000000
    U_G[2,2,1]  c120      1000000
    U_G[2,2,1]  c121      -1000000
    U_G[2,3,1]  c141      1000000
    U_G[2,3,1]  c142      -1000000
    U_G[2,4,1]  c162      1000000
    U_G[2,4,1]  c163      -1000000
    Y_PVES[1,1,1]  c3        1
    Y_PVES[1,1,1]  c11       -1
    Y_PVES[1,1,1]  c85       -0.85
    Y_PVES[1,2,1]  c24       1
    Y_PVES[1,2,1]  c32       -1
    Y_PVES[1,2,1]  c86       -0.85
    Y_PVES[1,3,1]  c45       1
    Y_PVES[1,3,1]  c53       -1
    Y_PVES[1,4,1]  c66       1
    Y_PVES[1,4,1]  c74       -1
    Y_PVES[2,1,1]  c90       1
    Y_PVES[2,1,1]  c98       -1
    Y_PVES[2,1,1]  c172      -0.85
    Y_PVES[2,2,1]  c111      1
    Y_PVES[2,2,1]  c119      -1
    Y_PVES[2,2,1]  c173      -0.85
    Y_PVES[2,3,1]  c132      1
    Y_PVES[2,3,1]  c140      -1
    Y_PVES[2,4,1]  c153      1
    Y_PVES[2,4,1]  c161      -1
    Y_DGES[1,1,1]  OBJ       2.1900000000000002e+01
    Y_DGES[1,1,1]  c4        1
    Y_DGES[1,1,1]  c11       -1
    Y_DGES[1,1,1]  c85       -0.85
    Y_DGES[1,2,1]  OBJ       2.1900000000000002e+01
    Y_DGES[1,2,1]  c25       1
    Y_DGES[1,2,1]  c32       -1
    Y_DGES[1,2,1]  c86       -0.85
    Y_DGES[1,3,1]  OBJ       2.1900000000000002e+01
    Y_DGES[1,3,1]  c46       1
    Y_DGES[1,3,1]  c53       -1
    Y_DGES[1,4,1]  OBJ       2.1900000000000002e+01
    Y_DGES[1,4,1]  c67       1
    Y_DGES[1,4,1]  c74       -1
    Y_DGES[2,1,1]  OBJ       2.1900000000000002e+01
    Y_DGES[2,1,1]  c91       1
    Y_DGES[2,1,1]  c98       -1
    Y_DGES[2,1,1]  c172      -0.85
    Y_DGES[2,2,1]  OBJ       2.1900000000000002e+01
    Y_DGES[2,2,1]  c112      1
    Y_DGES[2,2,1]  c119      -1
    Y_DGES[2,2,1]  c173      -0.85
    Y_DGES[2,3,1]  OBJ       2.1900000000000002e+01
    Y_DGES[2,3,1]  c133      1
    Y_DGES[2,3,1]  c140      -1
    Y_DGES[2,4,1]  OBJ       2.1900000000000002e+01
    Y_DGES[2,4,1]  c154      1
    Y_DGES[2,4,1]  c161      -1
    Y_GridES[1,1,1]  OBJ       7.8057857142857143e+00
    Y_GridES[1,1,1]  c11       -1
    Y_GridES[1,1,1]  c13       -1
    Y_GridES[1,1,1]  c14       1
    Y_GridES[1,1,1]  c35       1
    Y_GridES[1,1,1]  c56       1
    Y_GridES[1,1,1]  c77       1
    Y_GridES[1,1,1]  c85       -0.68
    Y_GridES[1,2,1]  OBJ       7.8057857142857143e+00
    Y_GridES[1,2,1]  c16       1
    Y_GridES[1,2,1]  c32       -1
    Y_GridES[1,2,1]  c34       -1
    Y_GridES[1,2,1]  c37       1
    Y_GridES[1,2,1]  c58       1
    Y_GridES[1,2,1]  c79       1
    Y_GridES[1,2,1]  c86       -0.68
    Y_GridES[1,3,1]  OBJ       7.8057857142857143e+00
    Y_GridES[1,3,1]  c18       1
    Y_GridES[1,3,1]  c39       1
    Y_GridES[1,3,1]  c53       -1
    Y_GridES[1,3,1]  c55       -1
    Y_GridES[1,3,1]  c60       1
    Y_GridES[1,3,1]  c81       1
    Y_GridES[1,4,1]  OBJ       7.8057857142857143e+00
    Y_GridES[1,4,1]  c20       1
    Y_GridES[1,4,1]  c41       1
    Y_GridES[1,4,1]  c62       1
    Y_GridES[1,4,1]  c74       -1
    Y_GridES[1,4,1]  c76       -1
    Y_GridES[1,4,1]  c83       1
    Y_GridES[2,1,1]  OBJ       7.8057857142857143e+00
    Y_GridES[2,1,1]  c98       -1
    Y_GridES[2,1,1]  c100      -1
    Y_GridES[2,1,1]  c101      1
    Y_GridES[2,1,1]  c122      1
    Y_GridES[2,1,1]  c143      1
    Y_GridES[2,1,1]  c164      1
    Y_GridES[2,1,1]  c172      -0.68
    Y_GridES[2,2,1]  OBJ       7.8057857142857143e+00
    Y_GridES[2,2,1]  c103      1
    Y_GridES[2,2,1]  c119      -1
    Y_GridES[2,2,1]  c121      -1
    Y_GridES[2,2,1]  c124      1
    Y_GridES[2,2,1]  c145      1
    Y_GridES[2,2,1]  c166      1
    Y_GridES[2,2,1]  c173      -0.68
    Y_GridES[2,3,1]  OBJ       7.8057857142857143e+00
    Y_GridES[2,3,1]  c105      1
    Y_GridES[2,3,1]  c126      1
    Y_GridES[2,3,1]  c140      -1
    Y_GridES[2,3,1]  c142      -1
    Y_GridES[2,3,1]  c147      1
    Y_GridES[2,3,1]  c168      1
    Y_GridES[2,4,1]  OBJ       7.8057857142857143e+00
    Y_GridES[2,4,1]  c107      1
    Y_GridES[2,4,1]  c128      1
    Y_GridES[2,4,1]  c149      1
    Y_GridES[2,4,1]  c161      -1
    Y_GridES[2,4,1]  c163      -1
    Y_GridES[2,4,1]  c170      1
    Y_PV[1,1,1]  OBJ       -7.0252071428571439e+00
    Y_PV[1,1,1]  c3        1
    Y_PV[1,1,1]  c5        -0.9
    Y_PV[1,2,1]  OBJ       -7.0252071428571439e+00
    Y_PV[1,2,1]  c24       1
    Y_PV[1,2,1]  c26       -0.9
    Y_PV[1,3,1]  OBJ       -7.0252071428571439e+00
    Y_PV[1,3,1]  c45       1
    Y_PV[1,3,1]  c47       -0.9
    Y_PV[1,4,1]  OBJ       -7.0252071428571439e+00
    Y_PV[1,4,1]  c66       1
    Y_PV[1,4,1]  c68       -0.9
    Y_PV[2,1,1]  OBJ       -7.0252071428571439e+00
    Y_PV[2,1,1]  c90       1
    Y_PV[2,1,1]  c92       -0.9
    Y_PV[2,2,1]  OBJ       -7.0252071428571439e+00
    Y_PV[2,2,1]  c111      1
    Y_PV[2,2,1]  c113      -0.9
    Y_PV[2,3,1]  OBJ       -7.0252071428571439e+00
    Y_PV[2,3,1]  c132      1
    Y_PV[2,3,1]  c134      -0.9
    Y_PV[2,4,1]  OBJ       -7.0252071428571439e+00
    Y_PV[2,4,1]  c153      1
    Y_PV[2,4,1]  c155      -0.9
    Y_DGL[1,1,1]  OBJ       1.4874792857142857e+01
    Y_DGL[1,1,1]  c4        1
    Y_DGL[1,1,1]  c5        -0.9
    Y_DGL[1,2,1]  OBJ       1.4874792857142857e+01
    Y_DGL[1,2,1]  c25       1
    Y_DGL[1,2,1]  c26       -0.9
    Y_DGL[1,3,1]  OBJ       1.4874792857142857e+01
    Y_DGL[1,3,1]  c46       1
    Y_DGL[1,3,1]  c47       -0.9
    Y_DGL[1,4,1]  OBJ       1.4874792857142857e+01
    Y_DGL[1,4,1]  c67       1
    Y_DGL[1,4,1]  c68       -0.9
    Y_DGL[2,1,1]  OBJ       1.4874792857142857e+01
    Y_DGL[2,1,1]  c91       1
    Y_DGL[2,1,1]  c92       -0.9
    Y_DGL[2,2,1]  OBJ       1.4874792857142857e+01
    Y_DGL[2,2,1]  c112      1
    Y_DGL[2,2,1]  c113      -0.9
    Y_DGL[2,3,1]  OBJ       1.4874792857142857e+01
    Y_DGL[2,3,1]  c133      1
    Y_DGL[2,3,1]  c134      -0.9
    Y_DGL[2,4,1]  OBJ       1.4874792857142857e+01
    Y_DGL[2,4,1]  c154      1
    Y_DGL[2,4,1]  c155      -0.9
    Y_ESL[1,1,1]  OBJ       -7.0252071428571439e+00
    Y_ESL[1,1,1]  c5        -0.9
    Y_ESL[1,1,1]  c10       -1
    Y_ESL[1,1,1]  c85       1.0588235294117647e+00
    Y_ESL[1,2,1]  OBJ       -7.0252071428571439e+00
    Y_ESL[1,2,1]  c26       -0.9
    Y_ESL[1,2,1]  c31       -1
    Y_ESL[1,2,1]  c86       1.0588235294117647e+00
    Y_ESL[1,3,1]  OBJ       -7.0252071428571439e+00
    Y_ESL[1,3,1]  c47       -0.9
    Y_ESL[1,3,1]  c52       -1
    Y_ESL[1,4,1]  OBJ       -7.0252071428571439e+00
    Y_ESL[1,4,1]  c68       -0.9
    Y_ESL[1,4,1]  c73       -1
    Y_ESL[2,1,1]  OBJ       -7.0252071428571439e+00
    Y_ESL[2,1,1]  c92       -0.9
    Y_ESL[2,1,1]  c97       -1
    Y_ESL[2,1,1]  c172      1.0588235294117647e+00
    Y_ESL[2,2,1]  OBJ       -7.0252071428571439e+00
    Y_ESL[2,2,1]  c113      -0.9
    Y_ESL[2,2,1]  c118      -1
    Y_ESL[2,2,1]  c173      1.0588235294117647e+00
    Y_ESL[2,3,1]  OBJ       -7.0252071428571439e+00
    Y_ESL[2,3,1]  c134      -0.9
    Y_ESL[2,3,1]  c139      -1
    Y_ESL[2,4,1]  OBJ       -7.0252071428571439e+00
    Y_ESL[2,4,1]  c155      -0.9
    Y_ESL[2,4,1]  c160      -1
    Y_GridL[1,1,1]  c5        -1
    Y_GridL[1,1,1]  c13       -1
    Y_GridL[1,1,1]  c14       1
    Y_GridL[1,1,1]  c35       1
    Y_GridL[1,1,1]  c56       1
    Y_GridL[1,1,1]  c77       1
    Y_GridL[1,2,1]  c16       1
    Y_GridL[1,2,1]  c26       -1
    Y_GridL[1,2,1]  c34       -1
    Y_GridL[1,2,1]  c37       1
    Y_GridL[1,2,1]  c58       1
    Y_GridL[1,2,1]  c79       1
    Y_GridL[1,3,1]  c18       1
    Y_GridL[1,3,1]  c39       1
    Y_GridL[1,3,1]  c47       -1
    Y_GridL[1,3,1]  c55       -1
    Y_GridL[1,3,1]  c60       1
    Y_GridL[1,3,1]  c81       1
    Y_GridL[1,4,1]  c20       1
    Y_GridL[1,4,1]  c41       1
    Y_GridL[1,4,1]  c62       1
    Y_GridL[1,4,1]  c68       -1
    Y_GridL[1,4,1]  c76       -1
    Y_GridL[1,4,1]  c83       1
    Y_GridL[2,1,1]  c92       -1
    Y_GridL[2,1,1]  c100      -1
    Y_GridL[2,1,1]  c101      1
    Y_GridL[2,1,1]  c122      1
    Y_GridL[2,1,1]  c143      1
    Y_GridL[2,1,1]  c164      1
    Y_GridL[2,2,1]  c103      1
    Y_GridL[2,2,1]  c113      -1
    Y_GridL[2,2,1]  c121      -1
    Y_GridL[2,2,1]  c124      1
    Y_GridL[2,2,1]  c145      1
    Y_GridL[2,2,1]  c166      1
    Y_GridL[2,3,1]  c105      1
    Y_GridL[2,3,1]  c126      1
    Y_GridL[2,3,1]  c134      -1
    Y_GridL[2,3,1]  c142      -1
    Y_GridL[2,3,1]  c147      1
    Y_GridL[2,3,1]  c168      1
    Y_GridL[2,4,1]  c107      1
    Y_GridL[2,4,1]  c128      1
    Y_GridL[2,4,1]  c149      1
    Y_GridL[2,4,1]  c155      -1
    Y_GridL[2,4,1]  c163      -1
    Y_GridL[2,4,1]  c170      1
    Y_PVCur[1,1,1]  OBJ       3.9028928571428572e+00
    Y_PVCur[1,1,1]  c3        1
    Y_PVCur[1,2,1]  OBJ       3.9028928571428572e+00
    Y_PVCur[1,2,1]  c24       1
    Y_PVCur[1,3,1]  OBJ       3.9028928571428572e+00
    Y_PVCur[1,3,1]  c45       1
    Y_PVCur[1,4,1]  OBJ       3.9028928571428572e+00
    Y_PVCur[1,4,1]  c66       1
    Y_PVCur[2,1,1]  OBJ       3.9028928571428572e+00
    Y_PVCur[2,1,1]  c90       1
    Y_PVCur[2,2,1]  OBJ       3.9028928571428572e+00
    Y_PVCur[2,2,1]  c111      1
    Y_PVCur[2,3,1]  OBJ       3.9028928571428572e+00
    Y_PVCur[2,3,1]  c132      1
    Y_PVCur[2,4,1]  OBJ       3.9028928571428572e+00
    Y_PVCur[2,4,1]  c153      1
    Y_DGCur[1,1,1]  OBJ       2.5802892857142858e+01
    Y_DGCur[1,1,1]  c4        1
    Y_DGCur[1,2,1]  OBJ       2.5802892857142858e+01
    Y_DGCur[1,2,1]  c25       1
    Y_DGCur[1,3,1]  OBJ       2.5802892857142858e+01
    Y_DGCur[1,3,1]  c46       1
    Y_DGCur[1,4,1]  OBJ       2.5802892857142858e+01
    Y_DGCur[1,4,1]  c67       1
    Y_DGCur[2,1,1]  OBJ       2.5802892857142858e+01
    Y_DGCur[2,1,1]  c91       1
    Y_DGCur[2,2,1]  OBJ       2.5802892857142858e+01
    Y_DGCur[2,2,1]  c112      1
    Y_DGCur[2,3,1]  OBJ       2.5802892857142858e+01
    Y_DGCur[2,3,1]  c133      1
    Y_DGCur[2,4,1]  OBJ       2.5802892857142858e+01
    Y_DGCur[2,4,1]  c154      1
    Y_DGGrid[1,1,1]  OBJ       -3.9028928571428572e+00
    Y_DGGrid[1,1,1]  c3        1
    Y_DGGrid[1,1,1]  c12       -1
    Y_DGGrid[1,1,1]  c15       1
    Y_DGGrid[1,1,1]  c36       1
    Y_DGGrid[1,1,1]  c57       1
    Y_DGGrid[1,1,1]  c78       1
    Y_DGGrid[1,2,1]  OBJ       -3.9028928571428572e+00
    Y_DGGrid[1,2,1]  c17       1
    Y_DGGrid[1,2,1]  c24       1
    Y_DGGrid[1,2,1]  c33       -1
    Y_DGGrid[1,2,1]  c38       1
    Y_DGGrid[1,2,1]  c59       1
    Y_DGGrid[1,2,1]  c80       1
    Y_DGGrid[1,3,1]  OBJ       -3.9028928571428572e+00
    Y_DGGrid[1,3,1]  c19       1
    Y_DGGrid[1,3,1]  c40       1
    Y_DGGrid[1,3,1]  c45       1
    Y_DGGrid[1,3,1]  c54       -1
    Y_DGGrid[1,3,1]  c61       1
    Y_DGGrid[1,3,1]  c82       1
    Y_DGGrid[1,4,1]  OBJ       -3.9028928571428572e+00
    Y_DGGrid[1,4,1]  c21       1
    Y_DGGrid[1,4,1]  c42       1
    Y_DGGrid[1,4,1]  c63       1
    Y_DGGrid[1,4,1]  c66       1
    Y_DGGrid[1,4,1]  c75       -1
    Y_DGGrid[1,4,1]  c84       1
    Y_DGGrid[2,1,1]  OBJ       -3.9028928571428572e+00
    Y_DGGrid[2,1,1]  c90       1
    Y_DGGrid[2,1,1]  c99       -1
    Y_DGGrid[2,1,1]  c102      1
    Y_DGGrid[2,1,1]  c123      1
    Y_DGGrid[2,1,1]  c144      1
    Y_DGGrid[2,1,1]  c165      1
    Y_DGGrid[2,2,1]  OBJ       -3.9028928571428572e+00
    Y_DGGrid[2,2,1]  c104      1
    Y_DGGrid[2,2,1]  c111      1
    Y_DGGrid[2,2,1]  c120      -1
    Y_DGGrid[2,2,1]  c125      1
    Y_DGGrid[2,2,1]  c146      1
    Y_DGGrid[2,2,1]  c167      1
    Y_DGGrid[2,3,1]  OBJ       -3.9028928571428572e+00
    Y_DGGrid[2,3,1]  c106      1
    Y_DGGrid[2,3,1]  c127      1
    Y_DGGrid[2,3,1]  c132      1
    Y_DGGrid[2,3,1]  c141      -1
    Y_DGGrid[2,3,1]  c148      1
    Y_DGGrid[2,3,1]  c169      1
    Y_DGGrid[2,4,1]  OBJ       -3.9028928571428572e+00
    Y_DGGrid[2,4,1]  c108      1
    Y_DGGrid[2,4,1]  c129      1
    Y_DGGrid[2,4,1]  c150      1
    Y_DGGrid[2,4,1]  c153      1
    Y_DGGrid[2,4,1]  c162      -1
    Y_DGGrid[2,4,1]  c171      1
    Y_PVGrid[1,1,1]  OBJ       1.7997107142857146e+01
    Y_PVGrid[1,1,1]  c4        1
    Y_PVGrid[1,1,1]  c12       -1
    Y_PVGrid[1,1,1]  c15       1
    Y_PVGrid[1,1,1]  c36       1
    Y_PVGrid[1,1,1]  c57       1
    Y_PVGrid[1,1,1]  c78       1
    Y_PVGrid[1,2,1]  OBJ       1.7997107142857146e+01
    Y_PVGrid[1,2,1]  c17       1
    Y_PVGrid[1,2,1]  c25       1
    Y_PVGrid[1,2,1]  c33       -1
    Y_PVGrid[1,2,1]  c38       1
    Y_PVGrid[1,2,1]  c59       1
    Y_PVGrid[1,2,1]  c80       1
    Y_PVGrid[1,3,1]  OBJ       1.7997107142857146e+01
    Y_PVGrid[1,3,1]  c19       1
    Y_PVGrid[1,3,1]  c40       1
    Y_PVGrid[1,3,1]  c46       1
    Y_PVGrid[1,3,1]  c54       -1
    Y_PVGrid[1,3,1]  c61       1
    Y_PVGrid[1,3,1]  c82       1
    Y_PVGrid[1,4,1]  OBJ       1.7997107142857146e+01
    Y_PVGrid[1,4,1]  c21       1
    Y_PVGrid[1,4,1]  c42       1
    Y_PVGrid[1,4,1]  c63       1
    Y_PVGrid[1,4,1]  c67       1
    Y_PVGrid[1,4,1]  c75       -1
    Y_PVGrid[1,4,1]  c84       1
    Y_PVGrid[2,1,1]  OBJ       1.7997107142857146e+01
    Y_PVGrid[2,1,1]  c91       1
    Y_PVGrid[2,1,1]  c99       -1
    Y_PVGrid[2,1,1]  c102      1
    Y_PVGrid[2,1,1]  c123      1
    Y_PVGrid[2,1,1]  c144      1
    Y_PVGrid[2,1,1]  c165      1
    Y_PVGrid[2,2,1]  OBJ       1.7997107142857146e+01
    Y_PVGrid[2,2,1]  c104      1
    Y_PVGrid[2,2,1]  c112      1
    Y_PVGrid[2,2,1]  c120      -1
    Y_PVGrid[2,2,1]  c125      1
    Y_PVGrid[2,2,1]  c146      1
    Y_PVGrid[2,2,1]  c167      1
    Y_PVGrid[2,3,1]  OBJ       1.7997107142857146e+01
    Y_PVGrid[2,3,1]  c106      1
    Y_PVGrid[2,3,1]  c127      1
    Y_PVGrid[2,3,1]  c133      1
    Y_PVGrid[2,3,1]  c141      -1
    Y_PVGrid[2,3,1]  c148      1
    Y_PVGrid[2,3,1]  c169      1
    Y_PVGrid[2,4,1]  OBJ       1.7997107142857146e+01
    Y_PVGrid[2,4,1]  c108      1
    Y_PVGrid[2,4,1]  c129      1
    Y_PVGrid[2,4,1]  c150      1
    Y_PVGrid[2,4,1]  c154      1
    Y_PVGrid[2,4,1]  c162      -1
    Y_PVGrid[2,4,1]  c171      1
    Y_ESGrid[1,1,1]  OBJ       -3.9028928571428572e+00
    Y_ESGrid[1,1,1]  c10       -1
    Y_ESGrid[1,1,1]  c12       -1
    Y_ESGrid[1,1,1]  c15       1
    Y_ESGrid[1,1,1]  c36       1
    Y_ESGrid[1,1,1]  c57       1
    Y_ESGrid[1,1,1]  c78       1
    Y_ESGrid[1,1,1]  c85       1.0588235294117647e+00
    Y_ESGrid[1,2,1]  OBJ       -3.9028928571428572e+00
    Y_ESGrid[1,2,1]  c17       1
    Y_ESGrid[1,2,1]  c31       -1
    Y_ESGrid[1,2,1]  c33       -1
    Y_ESGrid[1,2,1]  c38       1
    Y_ESGrid[1,2,1]  c59       1
    Y_ESGrid[1,2,1]  c80       1
    Y_ESGrid[1,2,1]  c86       1.0588235294117647e+00
    Y_ESGrid[1,3,1]  OBJ       -3.9028928571428572e+00
    Y_ESGrid[1,3,1]  c19       1
    Y_ESGrid[1,3,1]  c40       1
    Y_ESGrid[1,3,1]  c52       -1
    Y_ESGrid[1,3,1]  c54       -1
    Y_ESGrid[1,3,1]  c61       1
    Y_ESGrid[1,3,1]  c82       1
    Y_ESGrid[1,4,1]  OBJ       -3.9028928571428572e+00
    Y_ESGrid[1,4,1]  c21       1
    Y_ESGrid[1,4,1]  c42       1
    Y_ESGrid[1,4,1]  c63       1
    Y_ESGrid[1,4,1]  c73       -1
    Y_ESGrid[1,4,1]  c75       -1
    Y_ESGrid[1,4,1]  c84       1
    Y_ESGrid[2,1,1]  OBJ       -3.9028928571428572e+00
    Y_ESGrid[2,1,1]  c97       -1
    Y_ESGrid[2,1,1]  c99       -1
    Y_ESGrid[2,1,1]  c102      1
    Y_ESGrid[2,1,1]  c123      1
    Y_ESGrid[2,1,1]  c144      1
    Y_ESGrid[2,1,1]  c165      1
    Y_ESGrid[2,1,1]  c172      1.0588235294117647e+00
    Y_ESGrid[2,2,1]  OBJ       -3.9028928571428572e+00
    Y_ESGrid[2,2,1]  c104      1
    Y_ESGrid[2,2,1]  c118      -1
    Y_ESGrid[2,2,1]  c120      -1
    Y_ESGrid[2,2,1]  c125      1
    Y_ESGrid[2,2,1]  c146      1
    Y_ESGrid[2,2,1]  c167      1
    Y_ESGrid[2,2,1]  c173      1.0588235294117647e+00
    Y_ESGrid[2,3,1]  OBJ       -3.9028928571428572e+00
    Y_ESGrid[2,3,1]  c106      1
    Y_ESGrid[2,3,1]  c127      1
    Y_ESGrid[2,3,1]  c139      -1
    Y_ESGrid[2,3,1]  c141      -1
    Y_ESGrid[2,3,1]  c148      1
    Y_ESGrid[2,3,1]  c169      1
    Y_ESGrid[2,4,1]  OBJ       -3.9028928571428572e+00
    Y_ESGrid[2,4,1]  c108      1
    Y_ESGrid[2,4,1]  c129      1
    Y_ESGrid[2,4,1]  c150      1
    Y_ESGrid[2,4,1]  c160      -1
    Y_ESGrid[2,4,1]  c162      -1
    Y_ESGrid[2,4,1]  c171      1
    Y_E[1,1,1]  c0        1
    Y_E[1,1,1]  c1        1
    Y_E[1,1,1]  c2        -1
    Y_E[1,1,1]  c8        1
    Y_E[1,1,1]  c85       -1
    Y_E[1,2,1]  c22       1
    Y_E[1,2,1]  c23       -1
    Y_E[1,2,1]  c29       1
    Y_E[1,2,1]  c85       1
    Y_E[1,2,1]  c86       -1
    Y_E[1,3,1]  c43       1
    Y_E[1,3,1]  c44       -1
    Y_E[1,3,1]  c50       1
    Y_E[1,3,1]  c86       1
    Y_E[1,4,1]  c64       1
    Y_E[1,4,1]  c65       -1
    Y_E[1,4,1]  c71       1
    Y_E[2,1,1]  c87       1
    Y_E[2,1,1]  c88       1
    Y_E[2,1,1]  c89       -1
    Y_E[2,1,1]  c95       1
    Y_E[2,1,1]  c172      -1
    Y_E[2,2,1]  c109      1
    Y_E[2,2,1]  c110      -1
    Y_E[2,2,1]  c116      1
    Y_E[2,2,1]  c172      1
    Y_E[2,2,1]  c173      -1
    Y_E[2,3,1]  c130      1
    Y_E[2,3,1]  c131      -1
    Y_E[2,3,1]  c137      1
    Y_E[2,3,1]  c173      1
    Y_E[2,4,1]  c151      1
    Y_E[2,4,1]  c152      -1
    Y_E[2,4,1]  c158      1
    Y_LH[1,1,1,1]  c5        1
    Y_LH[1,1,1,1]  c6        1
    Y_LH[1,1,2,1]  c26       1
    Y_LH[1,1,2,1]  c27       1
    Y_LH[1,1,3,1]  c47       1
    Y_LH[1,1,3,1]  c48       1
    Y_LH[1,1,4,1]  c68       1
    Y_LH[1,1,4,1]  c69       1
    Y_LH[2,1,1,1]  c92       1
    Y_LH[2,1,1,1]  c93       1
    Y_LH[2,1,2,1]  c113      1
    Y_LH[2,1,2,1]  c114      1
    Y_LH[2,1,3,1]  c134      1
    Y_LH[2,1,3,1]  c135      1
    Y_LH[2,1,4,1]  c155      1
    Y_LH[2,1,4,1]  c156      1
    Y_LL[1,1,1,1]  OBJ       1.9514464285714286e+01
    Y_LL[1,1,1,1]  c6        1
    Y_LL[1,1,2,1]  OBJ       1.9514464285714286e+01
    Y_LL[1,1,2,1]  c27       1
    Y_LL[1,1,3,1]  OBJ       1.9514464285714286e+01
    Y_LL[1,1,3,1]  c48       1
    Y_LL[1,1,4,1]  OBJ       1.9514464285714286e+01
    Y_LL[1,1,4,1]  c69       1
    Y_LL[2,1,1,1]  OBJ       1.9514464285714286e+01
    Y_LL[2,1,1,1]  c93       1
    Y_LL[2,1,2,1]  OBJ       1.9514464285714286e+01
    Y_LL[2,1,2,1]  c114      1
    Y_LL[2,1,3,1]  OBJ       1.9514464285714286e+01
    Y_LL[2,1,3,1]  c135      1
    Y_LL[2,1,4,1]  OBJ       1.9514464285714286e+01
    Y_LL[2,1,4,1]  c156      1
    Y_LT[1,1,1,1]  OBJ       5.8543392857142855e+00
    Y_LT[1,1,1,1]  c6        1
    Y_LT[1,1,1,1]  c7        -1
    Y_LT[1,1,1,1]  c9        1
    Y_LT[1,1,2,1]  OBJ       5.8543392857142855e+00
    Y_LT[1,1,2,1]  c6        1
    Y_LT[1,1,2,1]  c7        -1
    Y_LT[1,1,2,1]  c29       -1
    Y_LT[1,1,3,1]  OBJ       5.8543392857142855e+00
    Y_LT[1,1,3,1]  c6        1
    Y_LT[1,1,3,1]  c7        -1
    Y_LT[1,1,3,1]  c50       -1
    Y_LT[1,1,4,1]  OBJ       5.8543392857142855e+00
    Y_LT[1,1,4,1]  c6        1
    Y_LT[1,1,4,1]  c7        -1
    Y_LT[1,1,4,1]  c71       -1
    Y_LT[1,2,1,1]  OBJ       5.8543392857142855e+00
    Y_LT[1,2,2,1]  OBJ       5.8543392857142855e+00
    Y_LT[1,2,2,1]  c27       1
    Y_LT[1,2,2,1]  c28       -1
    Y_LT[1,2,2,1]  c30       1
    Y_LT[1,2,3,1]  OBJ       5.8543392857142855e+00
    Y_LT[1,2,3,1]  c27       1
    Y_LT[1,2,3,1]  c28       -1
    Y_LT[1,2,3,1]  c50       -1
    Y_LT[1,2,4,1]  OBJ       5.8543392857142855e+00
    Y_LT[1,2,4,1]  c27       1
    Y_LT[1,2,4,1]  c28       -1
    Y_LT[1,2,4,1]  c71       -1
    Y_LT[1,3,1,1]  OBJ       5.8543392857142855e+00
    Y_LT[1,3,2,1]  OBJ       5.8543392857142855e+00
    Y_LT[1,3,3,1]  OBJ       5.8543392857142855e+00
    Y_LT[1,3,3,1]  c48       1
    Y_LT[1,3,3,1]  c49       -1
    Y_LT[1,3,3,1]  c51       1
    Y_LT[1,3,4,1]  OBJ       5.8543392857142855e+00
    Y_LT[1,3,4,1]  c48       1
    Y_LT[1,3,4,1]  c49       -1
    Y_LT[1,3,4,1]  c71       -1
    Y_LT[1,4,1,1]  OBJ       5.8543392857142855e+00
    Y_LT[1,4,2,1]  OBJ       5.8543392857142855e+00
    Y_LT[1,4,3,1]  OBJ       5.8543392857142855e+00
    Y_LT[1,4,4,1]  OBJ       5.8543392857142855e+00
    Y_LT[1,4,4,1]  c69       1
    Y_LT[1,4,4,1]  c70       -1
    Y_LT[1,4,4,1]  c72       1
    Y_LT[2,1,1,1]  OBJ       5.8543392857142855e+00
    Y_LT[2,1,1,1]  c93       1
    Y_LT[2,1,1,1]  c94       -1
    Y_LT[2,1,1,1]  c96       1
    Y_LT[2,1,2,1]  OBJ       5.8543392857142855e+00
    Y_LT[2,1,2,1]  c93       1
    Y_LT[2,1,2,1]  c94       -1
    Y_LT[2,1,2,1]  c116      -1
    Y_LT[2,1,3,1]  OBJ       5.8543392857142855e+00
    Y_LT[2,1,3,1]  c93       1
    Y_LT[2,1,3,1]  c94       -1
    Y_LT[2,1,3,1]  c137      -1
    Y_LT[2,1,4,1]  OBJ       5.8543392857142855e+00
    Y_LT[2,1,4,1]  c93       1
    Y_LT[2,1,4,1]  c94       -1
    Y_LT[2,1,4,1]  c158      -1
    Y_LT[2,2,1,1]  OBJ       5.8543392857142855e+00
    Y_LT[2,2,2,1]  OBJ       5.8543392857142855e+00
    Y_LT[2,2,2,1]  c114      1
    Y_LT[2,2,2,1]  c115      -1
    Y_LT[2,2,2,1]  c117      1
    Y_LT[2,2,3,1]  OBJ       5.8543392857142855e+00
    Y_LT[2,2,3,1]  c114      1
    Y_LT[2,2,3,1]  c115      -1
    Y_LT[2,2,3,1]  c137      -1
    Y_LT[2,2,4,1]  OBJ       5.8543392857142855e+00
    Y_LT[2,2,4,1]  c114      1
    Y_LT[2,2,4,1]  c115      -1
    Y_LT[2,2,4,1]  c158      -1
    Y_LT[2,3,1,1]  OBJ       5.8543392857142855e+00
    Y_LT[2,3,2,1]  OBJ       5.8543392857142855e+00
    Y_LT[2,3,3,1]  OBJ       5.8543392857142855e+00
    Y_LT[2,3,3,1]  c135      1
    Y_LT[2,3,3,1]  c136      -1
    Y_LT[2,3,3,1]  c138      1
    Y_LT[2,3,4,1]  OBJ       5.8543392857142855e+00
    Y_LT[2,3,4,1]  c135      1
    Y_LT[2,3,4,1]  c136      -1
    Y_LT[2,3,4,1]  c158      -1
    Y_LT[2,4,1,1]  OBJ       5.8543392857142855e+00
    Y_LT[2,4,2,1]  OBJ       5.8543392857142855e+00
    Y_LT[2,4,3,1]  OBJ       5.8543392857142855e+00
    Y_LT[2,4,4,1]  OBJ       5.8543392857142855e+00
    Y_LT[2,4,4,1]  c156      1
    Y_LT[2,4,4,1]  c157      -1
    Y_LT[2,4,4,1]  c159      1
RHS
    RHS1      c6        840.795945264
    RHS1      c7        -252.2387835792
    RHS1      c11       -10000
    RHS1      c13       -1000000
    RHS1      c27       8.3617674241200007e+02
    RHS1      c28       -2.5085302272360002e+02
    RHS1      c32       -10000
    RHS1      c34       -1000000
    RHS1      c48       868.097698776
    RHS1      c49       -2.6042930963279997e+02
    RHS1      c53       -10000
    RHS1      c55       -1000000
    RHS1      c69       882.4714239
    RHS1      c70       -264.74142717
    RHS1      c74       -10000
    RHS1      c76       -1000000
    RHS1      c93       840.795945264
    RHS1      c94       -252.2387835792
    RHS1      c98       -10050.1
    RHS1      c100      -1000000
    RHS1      c114      8.3617674241200007e+02
    RHS1      c115      -2.5085302272360002e+02
    RHS1      c119      -10050.1
    RHS1      c121      -1000000
    RHS1      c135      868.097698776
    RHS1      c136      -2.6042930963279997e+02
    RHS1      c140      -10050.1
    RHS1      c142      -1000000
    RHS1      c156      882.4714239
    RHS1      c157      -264.74142717
    RHS1      c161      -10050.1
    RHS1      c163      -1000000
BOUNDS
 UP BND1      U_E[1,1,1]  1
 UP BND1      U_E[1,2,1]  1
 UP BND1      U_E[1,3,1]  1
 UP BND1      U_E[1,4,1]  1
 UP BND1      U_E[2,1,1]  1
 UP BND1      U_E[2,2,1]  1
 UP BND1      U_E[2,3,1]  1
 UP BND1      U_E[2,4,1]  1
 UP BND1      U_G[1,1,1]  1
 UP BND1      U_G[1,2,1]  1
 UP BND1      U_G[1,3,1]  1
 UP BND1      U_G[1,4,1]  1
 UP BND1      U_G[2,1,1]  1
 UP BND1      U_G[2,2,1]  1
 UP BND1      U_G[2,3,1]  1
 UP BND1      U_G[2,4,1]  1
ENDATA
